100 52692

 104 699
903 537
506 310
827 814
321 685
896 163
390 911
11 823
906 950
92 726
320 614
951 419
951 933
574 867
632 46
449 27
294 377
329 811
673 988
753 151
792 595
790 381
92 970
495 843
58 839
550 469
442 415
888 274
351 57
118 865
143 813
762 1000
619 997
102 556
85 769
701 945
73 850
822 248
707 451
82 130
85 955
987 607
375 229
371 672
813 619
948 359
987 114
754 672
377 521
84 773
778 521
559 853
425 552
907 561
112 877
493 404
12 135
469 29
57 756
119 621
118 705
650 213
747 137
584 15
963 351
375 590
286 393
869 438
224 905
964 349
13 514
970 784
44 397
892 623
528 863
993 950
74 148
554 927
970 493
524 259
630 460
696 981
455 493
628 329
585 634
902 241
46 76
281 129
951 129
891 152
456 139
621 641
278 182
189 346
464 897
354 474
584 668
78 173
975 193
987 41
